
Gurobi 10.0.1 (linux64) logging started Sun Nov 26 15:37:23 2023

Set parameter LogFile to value "ArtificialInstance/ExperimentV2/S2T4K3/BaRo/gurobi1.txt"
Gurobi Optimizer version 10.0.1 build v10.0.1rc0 (linux64)

CPU model: AMD EPYC 7H12 64-Core Processor, instruction set [SSE2|AVX|AVX2]
Thread count: 128 physical cores, 128 logical processors, using up to 32 threads

Academic license 656792 - for non-commercial use only - registered to b.___@student.vu.nl
Optimize a model with 2997 rows, 4561 columns and 15762 nonzeros
Model fingerprint: 0x17cf6706
Variable types: 1 continuous, 4560 integer (4560 binary)
Coefficient statistics:
  Matrix range     [1e+00, 4e+01]
  Objective range  [1e+00, 2e+01]
  Bounds range     [1e+00, 1e+00]
  RHS range        [1e+00, 1e+00]
Found heuristic solution: objective 571.7766972
Presolve time: 0.02s
Presolved: 2997 rows, 4561 columns, 15762 nonzeros
Variable types: 1 continuous, 4560 integer (4560 binary)

Root relaxation: objective 4.720151e+01, 2829 iterations, 0.10 seconds (0.08 work units)

    Nodes    |    Current Node    |     Objective Bounds      |     Work
 Expl Unexpl |  Obj  Depth IntInf | Incumbent    BestBd   Gap | It/Node Time

     0     0   47.20151    0  600  571.77670   47.20151  91.7%     -    0s
H    0     0                     338.6935394   47.20151  86.1%     -    0s
H    0     0                     331.0646019   47.20151  85.7%     -    0s
H    0     0                     104.9830019   47.20151  55.0%     -    0s
     0     0   52.58270    0  754  104.98300   52.58270  49.9%     -    0s
H    0     0                      86.7235257   52.58270  39.4%     -    0s
H    0     0                      84.0119020   56.63210  32.6%     -    0s
     0     0   56.63210    0  961   84.01190   56.63210  32.6%     -    0s
     0     0   56.67359    0  960   84.01190   56.67359  32.5%     -    0s
     0     0   56.67359    0  960   84.01190   56.67359  32.5%     -    0s
H    0     0                      79.4002560   59.32195  25.3%     -    1s
     0     0   59.32195    0 1068   79.40026   59.32195  25.3%     -    1s
     0     0   59.32195    0 1066   79.40026   59.32195  25.3%     -    1s
     0     0   60.80047    0  984   79.40026   60.80047  23.4%     -    1s
     0     0   60.84219    0 1010   79.40026   60.84219  23.4%     -    1s
     0     0   60.85240    0  977   79.40026   60.85240  23.4%     -    1s
     0     0   60.85240    0  979   79.40026   60.85240  23.4%     -    1s
     0     0   62.69382    0  887   79.40026   62.69382  21.0%     -    1s
H    0     0                      70.1272453   62.69382  10.6%     -    1s
     0     0   62.89357    0  813   70.12725   62.89357  10.3%     -    1s
     0     0   62.89357    0  818   70.12725   62.89357  10.3%     -    1s
     0     0   63.40797    0  826   70.12725   63.40797  9.58%     -    1s
     0     0   63.54382    0  818   70.12725   63.54382  9.39%     -    1s
     0     0   63.56252    0  891   70.12725   63.56252  9.36%     -    1s
     0     0   63.56622    0  853   70.12725   63.56622  9.36%     -    1s
     0     0   63.58254    0  853   70.12725   63.58254  9.33%     -    1s
     0     0   63.58299    0  873   70.12725   63.58299  9.33%     -    1s
     0     0   63.61671    0  933   70.12725   63.61671  9.28%     -    1s
     0     0   63.62291    0  873   70.12725   63.62291  9.28%     -    1s
     0     0   63.62315    0  982   70.12725   63.62315  9.27%     -    1s
     0     0   63.74057    0  937   70.12725   63.74057  9.11%     -    2s
     0     0   63.74718    0  925   70.12725   63.74718  9.10%     -    2s
     0     0   63.83628    0  896   70.12725   63.83628  8.97%     -    2s
     0     0   63.83942    0  972   70.12725   63.83942  8.97%     -    2s
     0     0   63.95163    0 1024   70.12725   63.95163  8.81%     -    2s
     0     0   63.95985    0 1043   70.12725   63.95985  8.79%     -    2s
     0     0   63.95986    0 1039   70.12725   63.95986  8.79%     -    2s
     0     0   64.07042    0  929   70.12725   64.07042  8.64%     -    2s
     0     0   64.08929    0  960   70.12725   64.08929  8.61%     -    2s
     0     0   64.09093    0  941   70.12725   64.09093  8.61%     -    2s
     0     0   64.15857    0  913   70.12725   64.15857  8.51%     -    2s
     0     0   64.16668    0  955   70.12725   64.16668  8.50%     -    2s
     0     0   64.17422    0  979   70.12725   64.17422  8.49%     -    2s
     0     0   64.17422    0  985   70.12725   64.17422  8.49%     -    2s
     0     0   64.17427    0  974   70.12725   64.17427  8.49%     -    2s
     0     0   64.17427    0  909   70.12725   64.17427  8.49%     -    2s
     0     2   64.17427    0  909   70.12725   64.17427  8.49%     -    3s

Cutting planes:
  Gomory: 3
  MIR: 1
  Zero half: 85
  RLT: 156

Explored 122 nodes (46292 simplex iterations) in 3.93 seconds (3.09 work units)
Thread count was 32 (of 128 available processors)

Solution count 8: 70.1272 79.4003 84.0119 ... 571.777

Optimal solution found (tolerance 1.00e-04)
Best objective 7.012724532181e+01, best bound 7.012724532181e+01, gap 0.0000%
